(declare-fun cmp215.not.i.i_30_101 () (_ BitVec 1))
(declare-fun narrow_30_103 () (_ BitVec 1))
(declare-fun cmp211.i.i_30_100 () (_ BitVec 1))
(declare-fun i143.i.i_30_99 () (_ BitVec 64))
(declare-fun i133.i.i_30_96 () (_ BitVec 64))
(declare-fun i141.i.i_30_98 () (_ BitVec 64))
(declare-fun i135.i.i_30_97 () (_ BitVec 64))
(declare-fun src_reg_30_25 () (_ BitVec 64))
(declare-fun src_reg_30_24 () (_ BitVec 64))
(declare-fun dst_reg_30_7 () (_ BitVec 64))
(declare-fun dst_reg_30_6 () (_ BitVec 64))
(declare-fun i30.i32_30_95 () (_ BitVec 32))
(declare-fun src_reg_30_29 () (_ BitVec 32))
(declare-fun i29.i29_30_94 () (_ BitVec 32))
(declare-fun src_reg_30_28 () (_ BitVec 32))
(declare-fun i28.i26_30_93 () (_ BitVec 32))
(declare-fun src_reg_30_27 () (_ BitVec 32))
(declare-fun i27.i23_30_92 () (_ BitVec 32))
(declare-fun src_reg_30_26 () (_ BitVec 32))
(declare-fun i26.i20_30_91 () (_ BitVec 64))
(declare-fun i25.i17_30_90 () (_ BitVec 64))
(declare-fun i24.i14_30_89 () (_ BitVec 64))
(declare-fun src_reg_30_23 () (_ BitVec 64))
(declare-fun i23.i11_30_88 () (_ BitVec 64))
(declare-fun src_reg_30_22 () (_ BitVec 64))
(declare-fun i22.i8_30_87 () (_ BitVec 64))
(declare-fun src_reg_30_21 () (_ BitVec 64))
(declare-fun i21.i5_30_86 () (_ BitVec 64))
(declare-fun src_reg_30_20 () (_ BitVec 64))
(declare-fun i.i2_30_85 () (_ BitVec 32))
(declare-fun i30.i_30_84 () (_ BitVec 32))
(declare-fun dst_reg_30_11 () (_ BitVec 32))
(declare-fun i29.i_30_83 () (_ BitVec 32))
(declare-fun dst_reg_30_10 () (_ BitVec 32))
(declare-fun i28.i_30_82 () (_ BitVec 32))
(declare-fun dst_reg_30_9 () (_ BitVec 32))
(declare-fun i27.i_30_81 () (_ BitVec 32))
(declare-fun dst_reg_30_8 () (_ BitVec 32))
(declare-fun i26.i_30_80 () (_ BitVec 64))
(declare-fun i25.i_30_79 () (_ BitVec 64))
(declare-fun i24.i_30_78 () (_ BitVec 64))
(declare-fun dst_reg_30_5 () (_ BitVec 64))
(declare-fun i23.i_30_77 () (_ BitVec 64))
(declare-fun dst_reg_30_4 () (_ BitVec 64))
(declare-fun i22.i_30_76 () (_ BitVec 64))
(declare-fun dst_reg_30_3 () (_ BitVec 64))
(declare-fun i21.i_30_75 () (_ BitVec 64))
(declare-fun dst_reg_30_2 () (_ BitVec 64))
(declare-fun i.i_30_74 () (_ BitVec 32))
(declare-fun other_branch_src_reg_30_71 () (_ BitVec 8))
(declare-fun other_branch_src_reg_30_70 () (_ BitVec 32))
(declare-fun other_branch_src_reg_30_69 () (_ BitVec 32))
(declare-fun other_branch_src_reg_30_68 () (_ BitVec 32))
(declare-fun other_branch_src_reg_30_67 () (_ BitVec 32))
(declare-fun other_branch_src_reg_30_66 () (_ BitVec 32))
(declare-fun other_branch_src_reg_30_65 () (_ BitVec 32))
(declare-fun other_branch_src_reg_30_64 () (_ BitVec 32))
(declare-fun other_branch_src_reg_30_63 () (_ BitVec 32))
(declare-fun other_branch_src_reg_30_62 () (_ BitVec 32))
(declare-fun other_branch_src_reg_30_61 () (_ BitVec 64))
(declare-fun other_branch_src_reg_30_60 () (_ BitVec 64))
(declare-fun other_branch_src_reg_30_59 () (_ BitVec 64))
(declare-fun other_branch_src_reg_30_58 () (_ BitVec 64))
(declare-fun other_branch_src_reg_30_57 () (_ BitVec 64))
(declare-fun other_branch_src_reg_30_56 () (_ BitVec 64))
(declare-fun other_branch_src_reg_30_55 () (_ BitVec 32))
(declare-fun other_branch_src_reg_30_54 () (_ BitVec 32))
(declare-fun other_branch_dst_reg_30_53 () (_ BitVec 8))
(declare-fun other_branch_dst_reg_30_52 () (_ BitVec 32))
(declare-fun other_branch_dst_reg_30_51 () (_ BitVec 32))
(declare-fun other_branch_dst_reg_30_50 () (_ BitVec 32))
(declare-fun other_branch_dst_reg_30_49 () (_ BitVec 32))
(declare-fun other_branch_dst_reg_30_48 () (_ BitVec 32))
(declare-fun other_branch_dst_reg_30_47 () (_ BitVec 32))
(declare-fun other_branch_dst_reg_30_46 () (_ BitVec 32))
(declare-fun other_branch_dst_reg_30_45 () (_ BitVec 32))
(declare-fun other_branch_dst_reg_30_44 () (_ BitVec 32))
(declare-fun other_branch_dst_reg_30_43 () (_ BitVec 64))
(declare-fun other_branch_dst_reg_30_42 () (_ BitVec 64))
(declare-fun other_branch_dst_reg_30_41 () (_ BitVec 64))
(declare-fun other_branch_dst_reg_30_40 () (_ BitVec 64))
(declare-fun other_branch_dst_reg_30_39 () (_ BitVec 64))
(declare-fun other_branch_dst_reg_30_38 () (_ BitVec 64))
(declare-fun other_branch_dst_reg_30_37 () (_ BitVec 32))
(declare-fun other_branch_dst_reg_30_36 () (_ BitVec 32))
(declare-fun src_reg_30_35 () (_ BitVec 8))
(declare-fun src_reg_30_34 () (_ BitVec 32))
(declare-fun src_reg_30_33 () (_ BitVec 32))
(declare-fun src_reg_30_32 () (_ BitVec 32))
(declare-fun src_reg_30_31 () (_ BitVec 32))
(declare-fun src_reg_30_30 () (_ BitVec 32))
(declare-fun src_reg_30_19 () (_ BitVec 32))
(declare-fun src_reg_30_18 () (_ BitVec 32))
(declare-fun dst_reg_30_17 () (_ BitVec 8))
(declare-fun dst_reg_30_16 () (_ BitVec 32))
(declare-fun dst_reg_30_15 () (_ BitVec 32))
(declare-fun dst_reg_30_14 () (_ BitVec 32))
(declare-fun dst_reg_30_13 () (_ BitVec 32))
(declare-fun dst_reg_30_12 () (_ BitVec 32))
(declare-fun dst_reg_30_1 () (_ BitVec 32))
(declare-fun dst_reg_30_0 () (_ BitVec 32))
(declare-fun cmp.not.i_30_106 () (_ BitVec 1))
(declare-fun i.i35_30_104 () (_ BitVec 32))
(declare-fun cmp2.not.i_30_109 () (_ BitVec 1))
(declare-fun i1.i_30_107 () (_ BitVec 32))
(declare-fun i361.i524.i_30_124 () (_ BitVec 64))
(declare-fun cond347.i526.i_30_126 () (_ BitVec 64))
(declare-fun add339.i522.i_30_123 () (_ BitVec 64))
(declare-fun cmp342.i525.i_30_125 () (_ BitVec 1))
(declare-fun i360.i521.i_30_121 () (_ BitVec 64))
(declare-fun sub329.i517.i_30_118 () (_ BitVec 64))
(declare-fun cond336.i519.i_30_120 () (_ BitVec 64))
(declare-fun i358.i514.i_30_115 () (_ BitVec 64))
(declare-fun cmp331.i518.i_30_119 () (_ BitVec 1))
(declare-fun i359.i516.i_30_116 () (_ BitVec 64))
(declare-fun i353.i.i_30_112 () (_ BitVec 64))
(declare-fun cond300.i.i_30_114 () (_ BitVec 64))
(declare-fun cmp295.i.i_30_113 () (_ BitVec 1))
(declare-fun cond290.i.i_30_111 () (_ BitVec 64))
(declare-fun cmp285.i.i_30_110 () (_ BitVec 1))
(declare-fun other_branch_src_reg_30_270 () (_ BitVec 8))
(declare-fun other_branch_src_reg_30_198 () (_ BitVec 8))
(declare-fun other_branch_src_reg_30_269 () (_ BitVec 32))
(declare-fun other_branch_src_reg_30_197 () (_ BitVec 32))
(declare-fun other_branch_src_reg_30_268 () (_ BitVec 32))
(declare-fun other_branch_src_reg_30_196 () (_ BitVec 32))
(declare-fun other_branch_src_reg_30_267 () (_ BitVec 32))
(declare-fun other_branch_src_reg_30_195 () (_ BitVec 32))
(declare-fun other_branch_src_reg_30_266 () (_ BitVec 32))
(declare-fun other_branch_src_reg_30_194 () (_ BitVec 32))
(declare-fun other_branch_src_reg_30_265 () (_ BitVec 32))
(declare-fun other_branch_src_reg_30_193 () (_ BitVec 32))
(declare-fun other_branch_src_reg_30_264 () (_ BitVec 32))
(declare-fun other_branch_src_reg_30_192 () (_ BitVec 32))
(declare-fun other_branch_src_reg_30_263 () (_ BitVec 32))
(declare-fun other_branch_src_reg_30_191 () (_ BitVec 32))
(declare-fun other_branch_src_reg_30_262 () (_ BitVec 32))
(declare-fun other_branch_src_reg_30_190 () (_ BitVec 32))
(declare-fun other_branch_src_reg_30_261 () (_ BitVec 32))
(declare-fun other_branch_src_reg_30_189 () (_ BitVec 32))
(declare-fun other_branch_src_reg_30_260 () (_ BitVec 64))
(declare-fun other_branch_src_reg_30_188 () (_ BitVec 64))
(declare-fun other_branch_src_reg_30_259 () (_ BitVec 64))
(declare-fun other_branch_src_reg_30_187 () (_ BitVec 64))
(declare-fun other_branch_src_reg_30_258 () (_ BitVec 64))
(declare-fun other_branch_src_reg_30_186 () (_ BitVec 64))
(declare-fun other_branch_src_reg_30_257 () (_ BitVec 64))
(declare-fun other_branch_src_reg_30_185 () (_ BitVec 64))
(declare-fun other_branch_src_reg_30_256 () (_ BitVec 64))
(declare-fun other_branch_src_reg_30_184 () (_ BitVec 64))
(declare-fun other_branch_src_reg_30_255 () (_ BitVec 64))
(declare-fun other_branch_src_reg_30_183 () (_ BitVec 64))
(declare-fun other_branch_src_reg_30_254 () (_ BitVec 32))
(declare-fun other_branch_src_reg_30_182 () (_ BitVec 32))
(declare-fun other_branch_src_reg_30_253 () (_ BitVec 32))
(declare-fun other_branch_src_reg_30_181 () (_ BitVec 32))
(declare-fun other_branch_dst_reg_30_252 () (_ BitVec 8))
(declare-fun other_branch_dst_reg_30_180 () (_ BitVec 8))
(declare-fun other_branch_dst_reg_30_251 () (_ BitVec 32))
(declare-fun other_branch_dst_reg_30_179 () (_ BitVec 32))
(declare-fun other_branch_dst_reg_30_250 () (_ BitVec 32))
(declare-fun other_branch_dst_reg_30_178 () (_ BitVec 32))
(declare-fun other_branch_dst_reg_30_249 () (_ BitVec 32))
(declare-fun other_branch_dst_reg_30_177 () (_ BitVec 32))
(declare-fun other_branch_dst_reg_30_248 () (_ BitVec 32))
(declare-fun other_branch_dst_reg_30_176 () (_ BitVec 32))
(declare-fun other_branch_dst_reg_30_247 () (_ BitVec 32))
(declare-fun other_branch_dst_reg_30_175 () (_ BitVec 32))
(declare-fun other_branch_dst_reg_30_246 () (_ BitVec 32))
(declare-fun other_branch_dst_reg_30_174 () (_ BitVec 32))
(declare-fun other_branch_dst_reg_30_245 () (_ BitVec 32))
(declare-fun other_branch_dst_reg_30_173 () (_ BitVec 32))
(declare-fun other_branch_dst_reg_30_244 () (_ BitVec 32))
(declare-fun other_branch_dst_reg_30_172 () (_ BitVec 32))
(declare-fun other_branch_dst_reg_30_243 () (_ BitVec 32))
(declare-fun other_branch_dst_reg_30_171 () (_ BitVec 32))
(declare-fun other_branch_dst_reg_30_242 () (_ BitVec 64))
(declare-fun other_branch_dst_reg_30_170 () (_ BitVec 64))
(declare-fun other_branch_dst_reg_30_241 () (_ BitVec 64))
(declare-fun other_branch_dst_reg_30_169 () (_ BitVec 64))
(declare-fun other_branch_dst_reg_30_240 () (_ BitVec 64))
(declare-fun other_branch_dst_reg_30_168 () (_ BitVec 64))
(declare-fun other_branch_dst_reg_30_239 () (_ BitVec 64))
(declare-fun other_branch_dst_reg_30_167 () (_ BitVec 64))
(declare-fun other_branch_dst_reg_30_238 () (_ BitVec 64))
(declare-fun other_branch_dst_reg_30_166 () (_ BitVec 64))
(declare-fun other_branch_dst_reg_30_237 () (_ BitVec 64))
(declare-fun other_branch_dst_reg_30_165 () (_ BitVec 64))
(declare-fun other_branch_dst_reg_30_236 () (_ BitVec 32))
(declare-fun other_branch_dst_reg_30_164 () (_ BitVec 32))
(declare-fun other_branch_dst_reg_30_235 () (_ BitVec 32))
(declare-fun other_branch_dst_reg_30_163 () (_ BitVec 32))
(declare-fun src_reg_30_234 () (_ BitVec 8))
(declare-fun src_reg_30_162 () (_ BitVec 8))
(declare-fun src_reg_30_233 () (_ BitVec 32))
(declare-fun src_reg_30_161 () (_ BitVec 32))
(declare-fun src_reg_30_232 () (_ BitVec 32))
(declare-fun src_reg_30_160 () (_ BitVec 32))
(declare-fun src_reg_30_231 () (_ BitVec 32))
(declare-fun src_reg_30_159 () (_ BitVec 32))
(declare-fun src_reg_30_230 () (_ BitVec 32))
(declare-fun src_reg_30_158 () (_ BitVec 32))
(declare-fun src_reg_30_229 () (_ BitVec 32))
(declare-fun src_reg_30_157 () (_ BitVec 32))
(declare-fun src_reg_30_228 () (_ BitVec 32))
(declare-fun src_reg_30_156 () (_ BitVec 32))
(declare-fun src_reg_30_227 () (_ BitVec 32))
(declare-fun src_reg_30_155 () (_ BitVec 32))
(declare-fun src_reg_30_226 () (_ BitVec 32))
(declare-fun src_reg_30_154 () (_ BitVec 32))
(declare-fun src_reg_30_225 () (_ BitVec 32))
(declare-fun src_reg_30_153 () (_ BitVec 32))
(declare-fun src_reg_30_224 () (_ BitVec 64))
(declare-fun src_reg_30_152 () (_ BitVec 64))
(declare-fun src_reg_30_223 () (_ BitVec 64))
(declare-fun src_reg_30_151 () (_ BitVec 64))
(declare-fun src_reg_30_222 () (_ BitVec 64))
(declare-fun src_reg_30_150 () (_ BitVec 64))
(declare-fun src_reg_30_221 () (_ BitVec 64))
(declare-fun src_reg_30_149 () (_ BitVec 64))
(declare-fun src_reg_30_220 () (_ BitVec 64))
(declare-fun src_reg_30_148 () (_ BitVec 64))
(declare-fun src_reg_30_219 () (_ BitVec 64))
(declare-fun src_reg_30_147 () (_ BitVec 64))
(declare-fun src_reg_30_218 () (_ BitVec 32))
(declare-fun src_reg_30_146 () (_ BitVec 32))
(declare-fun src_reg_30_217 () (_ BitVec 32))
(declare-fun src_reg_30_145 () (_ BitVec 32))
(declare-fun dst_reg_30_216 () (_ BitVec 8))
(declare-fun dst_reg_30_144 () (_ BitVec 8))
(declare-fun dst_reg_30_215 () (_ BitVec 32))
(declare-fun dst_reg_30_143 () (_ BitVec 32))
(declare-fun dst_reg_30_214 () (_ BitVec 32))
(declare-fun dst_reg_30_142 () (_ BitVec 32))
(declare-fun dst_reg_30_213 () (_ BitVec 32))
(declare-fun dst_reg_30_141 () (_ BitVec 32))
(declare-fun dst_reg_30_212 () (_ BitVec 32))
(declare-fun dst_reg_30_140 () (_ BitVec 32))
(declare-fun dst_reg_30_211 () (_ BitVec 32))
(declare-fun dst_reg_30_139 () (_ BitVec 32))
(declare-fun dst_reg_30_210 () (_ BitVec 32))
(declare-fun dst_reg_30_138 () (_ BitVec 32))
(declare-fun dst_reg_30_209 () (_ BitVec 32))
(declare-fun dst_reg_30_137 () (_ BitVec 32))
(declare-fun dst_reg_30_208 () (_ BitVec 32))
(declare-fun dst_reg_30_136 () (_ BitVec 32))
(declare-fun dst_reg_30_207 () (_ BitVec 32))
(declare-fun dst_reg_30_135 () (_ BitVec 32))
(declare-fun dst_reg_30_206 () (_ BitVec 64))
(declare-fun dst_reg_30_134 () (_ BitVec 64))
(declare-fun dst_reg_30_205 () (_ BitVec 64))
(declare-fun dst_reg_30_133 () (_ BitVec 64))
(declare-fun dst_reg_30_204 () (_ BitVec 64))
(declare-fun dst_reg_30_132 () (_ BitVec 64))
(declare-fun dst_reg_30_203 () (_ BitVec 64))
(declare-fun dst_reg_30_131 () (_ BitVec 64))
(declare-fun dst_reg_30_202 () (_ BitVec 64))
(declare-fun dst_reg_30_130 () (_ BitVec 64))
(declare-fun dst_reg_30_201 () (_ BitVec 64))
(declare-fun dst_reg_30_129 () (_ BitVec 64))
(declare-fun dst_reg_30_200 () (_ BitVec 32))
(declare-fun dst_reg_30_128 () (_ BitVec 32))
(declare-fun dst_reg_30_199 () (_ BitVec 32))
(declare-fun dst_reg_30_127 () (_ BitVec 32))
(assert (let ((a!1 (and (= cmp2.not.i_30_109 #b1)
                (and (= cmp.not.i_30_106 #b1) (= narrow_30_103 #b0))))
      (a!2 (and (= cmp2.not.i_30_109 #b0)
                (and (= cmp.not.i_30_106 #b1) (= narrow_30_103 #b0))))
      (a!3 (and (= i.i2_30_85 other_branch_src_reg_30_181)
                (= other_branch_src_reg_30_55 other_branch_src_reg_30_182)
                (= i21.i5_30_86 other_branch_src_reg_30_183)
                (= i22.i8_30_87 other_branch_src_reg_30_184)
                (= i23.i11_30_88 other_branch_src_reg_30_185)
                (= i24.i14_30_89 other_branch_src_reg_30_186)
                (= i25.i17_30_90 other_branch_src_reg_30_187)
                (= i26.i20_30_91 other_branch_src_reg_30_188)
                (= i27.i23_30_92 other_branch_src_reg_30_189)
                (= i28.i26_30_93 other_branch_src_reg_30_190)
                (= i29.i29_30_94 other_branch_src_reg_30_191)
                (= i30.i32_30_95 other_branch_src_reg_30_192)
                (= other_branch_src_reg_30_66 other_branch_src_reg_30_193)
                (= other_branch_src_reg_30_67 other_branch_src_reg_30_194)
                (= other_branch_src_reg_30_68 other_branch_src_reg_30_195)
                (= other_branch_src_reg_30_69 other_branch_src_reg_30_196)
                (= other_branch_src_reg_30_70 other_branch_src_reg_30_197)
                (= other_branch_src_reg_30_71 other_branch_src_reg_30_198)
                (= i.i_30_74 other_branch_dst_reg_30_163)
                (= other_branch_dst_reg_30_37 other_branch_dst_reg_30_164)
                (= i21.i_30_75 other_branch_dst_reg_30_165)
                (= i22.i_30_76 other_branch_dst_reg_30_166)
                (= i23.i_30_77 other_branch_dst_reg_30_167)
                (= i24.i_30_78 other_branch_dst_reg_30_168)
                (= i25.i_30_79 other_branch_dst_reg_30_169)
                (= i26.i_30_80 other_branch_dst_reg_30_170)
                (= i27.i_30_81 other_branch_dst_reg_30_171)
                (= i28.i_30_82 other_branch_dst_reg_30_172)
                (= i29.i_30_83 other_branch_dst_reg_30_173)
                (= i30.i_30_84 other_branch_dst_reg_30_174)
                (= other_branch_dst_reg_30_48 other_branch_dst_reg_30_175)
                (= other_branch_dst_reg_30_49 other_branch_dst_reg_30_176)
                (= other_branch_dst_reg_30_50 other_branch_dst_reg_30_177)
                (= other_branch_dst_reg_30_51 other_branch_dst_reg_30_178)
                (= other_branch_dst_reg_30_52 other_branch_dst_reg_30_179)
                (= other_branch_dst_reg_30_53 other_branch_dst_reg_30_180)
                (= #x00000001 src_reg_30_145)
                (= src_reg_30_19 src_reg_30_146)
                (= src_reg_30_20 src_reg_30_147)
                (= src_reg_30_21 src_reg_30_148)
                (= src_reg_30_22 src_reg_30_149)
                (= src_reg_30_23 src_reg_30_150)
                (= src_reg_30_24 src_reg_30_151)
                (= src_reg_30_25 src_reg_30_152)
                (= src_reg_30_26 src_reg_30_153)
                (= src_reg_30_27 src_reg_30_154)
                (= src_reg_30_28 src_reg_30_155)
                (= src_reg_30_29 src_reg_30_156)
                (= src_reg_30_30 src_reg_30_157)
                (= src_reg_30_31 src_reg_30_158)
                (= src_reg_30_32 src_reg_30_159)
                (= src_reg_30_33 src_reg_30_160)
                (= src_reg_30_34 src_reg_30_161)
                (= src_reg_30_35 src_reg_30_162)
                (= #x00000001 dst_reg_30_127)
                (= dst_reg_30_1 dst_reg_30_128)
                (= dst_reg_30_2 dst_reg_30_129)
                (= dst_reg_30_3 dst_reg_30_130)
                (= dst_reg_30_4 dst_reg_30_131)
                (= dst_reg_30_5 dst_reg_30_132)
                (= dst_reg_30_6 dst_reg_30_133)
                (= dst_reg_30_7 dst_reg_30_134)
                (= dst_reg_30_8 dst_reg_30_135)
                (= dst_reg_30_9 dst_reg_30_136)
                (= dst_reg_30_10 dst_reg_30_137)
                (= dst_reg_30_11 dst_reg_30_138)
                (= dst_reg_30_12 dst_reg_30_139)
                (= dst_reg_30_13 dst_reg_30_140)
                (= dst_reg_30_14 dst_reg_30_141)
                (= dst_reg_30_15 dst_reg_30_142)
                (= dst_reg_30_16 dst_reg_30_143)
                (= dst_reg_30_17 dst_reg_30_144)))
      (a!7 (=> (and (= cmp.not.i_30_106 #b1) (= narrow_30_103 #b0))
               (and (= #x00000001 i1.i_30_107)
                    (ite (= i1.i_30_107 #x00000001)
                         (= cmp2.not.i_30_109 #b1)
                         (= cmp2.not.i_30_109 #b0)))))
      (a!8 (=> (= narrow_30_103 #b0)
               (and (= #x00000001 i.i35_30_104)
                    (ite (= i.i35_30_104 #x00000001)
                         (= cmp.not.i_30_106 #b1)
                         (= cmp.not.i_30_106 #b0))))))
(let ((a!4 (and (=> (= narrow_30_103 #b1) a!3)
                (=> (and (= cmp.not.i_30_106 #b0) (= narrow_30_103 #b0)) a!3)
                (=> a!2 a!3)
                (=> a!1
                    (and (= i.i2_30_85 other_branch_src_reg_30_181)
                         (= other_branch_src_reg_30_55
                            other_branch_src_reg_30_182)
                         (= i21.i5_30_86 other_branch_src_reg_30_183)
                         (= i22.i8_30_87 other_branch_src_reg_30_184)
                         (= i23.i11_30_88 other_branch_src_reg_30_185)
                         (= i24.i14_30_89 other_branch_src_reg_30_186)
                         (= cond347.i526.i_30_126 other_branch_src_reg_30_187)
                         (= i26.i20_30_91 other_branch_src_reg_30_188)
                         (= i27.i23_30_92 other_branch_src_reg_30_189)
                         (= i28.i26_30_93 other_branch_src_reg_30_190)
                         (= i29.i29_30_94 other_branch_src_reg_30_191)
                         (= i30.i32_30_95 other_branch_src_reg_30_192)
                         (= other_branch_src_reg_30_66
                            other_branch_src_reg_30_193)
                         (= other_branch_src_reg_30_67
                            other_branch_src_reg_30_194)
                         (= other_branch_src_reg_30_68
                            other_branch_src_reg_30_195)
                         (= other_branch_src_reg_30_69
                            other_branch_src_reg_30_196)
                         (= other_branch_src_reg_30_70
                            other_branch_src_reg_30_197)
                         (= other_branch_src_reg_30_71
                            other_branch_src_reg_30_198)
                         (= i.i_30_74 other_branch_dst_reg_30_163)
                         (= other_branch_dst_reg_30_37
                            other_branch_dst_reg_30_164)
                         (= i21.i_30_75 other_branch_dst_reg_30_165)
                         (= i22.i_30_76 other_branch_dst_reg_30_166)
                         (= i23.i_30_77 other_branch_dst_reg_30_167)
                         (= i24.i_30_78 other_branch_dst_reg_30_168)
                         (= i25.i_30_79 other_branch_dst_reg_30_169)
                         (= cond336.i519.i_30_120 other_branch_dst_reg_30_170)
                         (= i27.i_30_81 other_branch_dst_reg_30_171)
                         (= i28.i_30_82 other_branch_dst_reg_30_172)
                         (= i29.i_30_83 other_branch_dst_reg_30_173)
                         (= i30.i_30_84 other_branch_dst_reg_30_174)
                         (= other_branch_dst_reg_30_48
                            other_branch_dst_reg_30_175)
                         (= other_branch_dst_reg_30_49
                            other_branch_dst_reg_30_176)
                         (= other_branch_dst_reg_30_50
                            other_branch_dst_reg_30_177)
                         (= other_branch_dst_reg_30_51
                            other_branch_dst_reg_30_178)
                         (= other_branch_dst_reg_30_52
                            other_branch_dst_reg_30_179)
                         (= other_branch_dst_reg_30_53
                            other_branch_dst_reg_30_180)
                         (= #x00000001 src_reg_30_145)
                         (= src_reg_30_19 src_reg_30_146)
                         (= src_reg_30_20 src_reg_30_147)
                         (= src_reg_30_21 src_reg_30_148)
                         (= src_reg_30_22 src_reg_30_149)
                         (= src_reg_30_23 src_reg_30_150)
                         (= src_reg_30_24 src_reg_30_151)
                         (= cond290.i.i_30_111 src_reg_30_152)
                         (= src_reg_30_26 src_reg_30_153)
                         (= src_reg_30_27 src_reg_30_154)
                         (= src_reg_30_28 src_reg_30_155)
                         (= src_reg_30_29 src_reg_30_156)
                         (= src_reg_30_30 src_reg_30_157)
                         (= src_reg_30_31 src_reg_30_158)
                         (= src_reg_30_32 src_reg_30_159)
                         (= src_reg_30_33 src_reg_30_160)
                         (= src_reg_30_34 src_reg_30_161)
                         (= src_reg_30_35 src_reg_30_162)
                         (= #x00000001 dst_reg_30_127)
                         (= dst_reg_30_1 dst_reg_30_128)
                         (= dst_reg_30_2 dst_reg_30_129)
                         (= dst_reg_30_3 dst_reg_30_130)
                         (= dst_reg_30_4 dst_reg_30_131)
                         (= dst_reg_30_5 dst_reg_30_132)
                         (= cond300.i.i_30_114 dst_reg_30_133)
                         (= dst_reg_30_7 dst_reg_30_134)
                         (= dst_reg_30_8 dst_reg_30_135)
                         (= dst_reg_30_9 dst_reg_30_136)
                         (= dst_reg_30_10 dst_reg_30_137)
                         (= dst_reg_30_11 dst_reg_30_138)
                         (= dst_reg_30_12 dst_reg_30_139)
                         (= dst_reg_30_13 dst_reg_30_140)
                         (= dst_reg_30_14 dst_reg_30_141)
                         (= dst_reg_30_15 dst_reg_30_142)
                         (= dst_reg_30_16 dst_reg_30_143)
                         (= dst_reg_30_17 dst_reg_30_144)))
                (= dst_reg_30_127 dst_reg_30_199)
                (= dst_reg_30_128 dst_reg_30_200)
                (= dst_reg_30_129 dst_reg_30_201)
                (= dst_reg_30_130 dst_reg_30_202)
                (= dst_reg_30_131 dst_reg_30_203)
                (= dst_reg_30_132 dst_reg_30_204)
                (= dst_reg_30_133 dst_reg_30_205)
                (= dst_reg_30_134 dst_reg_30_206)
                (= dst_reg_30_135 dst_reg_30_207)
                (= dst_reg_30_136 dst_reg_30_208)
                (= dst_reg_30_137 dst_reg_30_209)
                (= dst_reg_30_138 dst_reg_30_210)
                (= dst_reg_30_139 dst_reg_30_211)
                (= dst_reg_30_140 dst_reg_30_212)
                (= dst_reg_30_141 dst_reg_30_213)
                (= dst_reg_30_142 dst_reg_30_214)
                (= dst_reg_30_143 dst_reg_30_215)
                (= dst_reg_30_144 dst_reg_30_216)
                (= src_reg_30_145 src_reg_30_217)
                (= src_reg_30_146 src_reg_30_218)
                (= src_reg_30_147 src_reg_30_219)
                (= src_reg_30_148 src_reg_30_220)
                (= src_reg_30_149 src_reg_30_221)
                (= src_reg_30_150 src_reg_30_222)
                (= src_reg_30_151 src_reg_30_223)
                (= src_reg_30_152 src_reg_30_224)
                (= src_reg_30_153 src_reg_30_225)
                (= src_reg_30_154 src_reg_30_226)
                (= src_reg_30_155 src_reg_30_227)
                (= src_reg_30_156 src_reg_30_228)
                (= src_reg_30_157 src_reg_30_229)
                (= src_reg_30_158 src_reg_30_230)
                (= src_reg_30_159 src_reg_30_231)
                (= src_reg_30_160 src_reg_30_232)
                (= src_reg_30_161 src_reg_30_233)
                (= src_reg_30_162 src_reg_30_234)
                (= other_branch_dst_reg_30_163 other_branch_dst_reg_30_235)
                (= other_branch_dst_reg_30_164 other_branch_dst_reg_30_236)
                (= other_branch_dst_reg_30_165 other_branch_dst_reg_30_237)
                (= other_branch_dst_reg_30_166 other_branch_dst_reg_30_238)
                (= other_branch_dst_reg_30_167 other_branch_dst_reg_30_239)
                (= other_branch_dst_reg_30_168 other_branch_dst_reg_30_240)
                (= other_branch_dst_reg_30_169 other_branch_dst_reg_30_241)
                (= other_branch_dst_reg_30_170 other_branch_dst_reg_30_242)
                (= other_branch_dst_reg_30_171 other_branch_dst_reg_30_243)
                (= other_branch_dst_reg_30_172 other_branch_dst_reg_30_244)
                (= other_branch_dst_reg_30_173 other_branch_dst_reg_30_245)
                (= other_branch_dst_reg_30_174 other_branch_dst_reg_30_246)
                (= other_branch_dst_reg_30_175 other_branch_dst_reg_30_247)
                (= other_branch_dst_reg_30_176 other_branch_dst_reg_30_248)
                (= other_branch_dst_reg_30_177 other_branch_dst_reg_30_249)
                (= other_branch_dst_reg_30_178 other_branch_dst_reg_30_250)
                (= other_branch_dst_reg_30_179 other_branch_dst_reg_30_251)
                (= other_branch_dst_reg_30_180 other_branch_dst_reg_30_252)
                (= other_branch_src_reg_30_181 other_branch_src_reg_30_253)
                (= other_branch_src_reg_30_182 other_branch_src_reg_30_254)
                (= other_branch_src_reg_30_183 other_branch_src_reg_30_255)
                (= other_branch_src_reg_30_184 other_branch_src_reg_30_256)
                (= other_branch_src_reg_30_185 other_branch_src_reg_30_257)
                (= other_branch_src_reg_30_186 other_branch_src_reg_30_258)
                (= other_branch_src_reg_30_187 other_branch_src_reg_30_259)
                (= other_branch_src_reg_30_188 other_branch_src_reg_30_260)
                (= other_branch_src_reg_30_189 other_branch_src_reg_30_261)
                (= other_branch_src_reg_30_190 other_branch_src_reg_30_262)
                (= other_branch_src_reg_30_191 other_branch_src_reg_30_263)
                (= other_branch_src_reg_30_192 other_branch_src_reg_30_264)
                (= other_branch_src_reg_30_193 other_branch_src_reg_30_265)
                (= other_branch_src_reg_30_194 other_branch_src_reg_30_266)
                (= other_branch_src_reg_30_195 other_branch_src_reg_30_267)
                (= other_branch_src_reg_30_196 other_branch_src_reg_30_268)
                (= other_branch_src_reg_30_197 other_branch_src_reg_30_269)
                (= other_branch_src_reg_30_198 other_branch_src_reg_30_270)))
      (a!6 (=> a!1
               (and (ite (bvult i143.i.i_30_99 i135.i.i_30_97)
                         (= cmp285.i.i_30_110 #b1)
                         (= cmp285.i.i_30_110 #b0))
                    (ite (= cmp285.i.i_30_110 #b1)
                         (= cond290.i.i_30_111 i143.i.i_30_99)
                         (= cond290.i.i_30_111 i135.i.i_30_97))
                    (= dst_reg_30_6 i353.i.i_30_112)
                    (ite (bvugt i141.i.i_30_98 i353.i.i_30_112)
                         (= cmp295.i.i_30_113 #b1)
                         (= cmp295.i.i_30_113 #b0))
                    (ite (= cmp295.i.i_30_113 #b1)
                         (= cond300.i.i_30_114 i141.i.i_30_98)
                         (= cond300.i.i_30_114 i353.i.i_30_112))
                    (= i26.i_30_80 i358.i514.i_30_115)
                    (= i26.i20_30_91 i359.i516.i_30_116)
                    (= sub329.i517.i_30_118
                       (bvadd i359.i516.i_30_116 #xffffffffffffffff))
                    (ite (bvult i358.i514.i_30_115 sub329.i517.i_30_118)
                         (= cmp331.i518.i_30_119 #b1)
                         (= cmp331.i518.i_30_119 #b0))
                    (ite (= cmp331.i518.i_30_119 #b1)
                         (= cond336.i519.i_30_120 i358.i514.i_30_115)
                         (= cond336.i519.i_30_120 sub329.i517.i_30_118))
                    (= i25.i_30_79 i360.i521.i_30_121)
                    (= add339.i522.i_30_123
                       (bvadd i360.i521.i_30_121 #x0000000000000001))
                    (= i25.i17_30_90 i361.i524.i_30_124)
                    (ite (bvugt add339.i522.i_30_123 i361.i524.i_30_124)
                         (= cmp342.i525.i_30_125 #b1)
                         (= cmp342.i525.i_30_125 #b0))
                    (ite (= cmp342.i525.i_30_125 #b1)
                         (= cond347.i526.i_30_126 add339.i522.i_30_123)
                         (= cond347.i526.i_30_126 i361.i524.i_30_124))))))
(let ((a!5 (=> (or a!1
                   a!2
                   (and (= cmp.not.i_30_106 #b0) (= narrow_30_103 #b0))
                   (= narrow_30_103 #b1))
               a!4)))
  (and a!5
       a!6
       a!7
       a!8
       (= dst_reg_30_0 dst_reg_30_0)
       (= dst_reg_30_1 dst_reg_30_1)
       (= dst_reg_30_2 dst_reg_30_2)
       (= dst_reg_30_3 dst_reg_30_3)
       (= dst_reg_30_4 dst_reg_30_4)
       (= dst_reg_30_5 dst_reg_30_5)
       (= dst_reg_30_6 dst_reg_30_6)
       (= dst_reg_30_7 dst_reg_30_7)
       (= dst_reg_30_8 dst_reg_30_8)
       (= dst_reg_30_9 dst_reg_30_9)
       (= dst_reg_30_10 dst_reg_30_10)
       (= dst_reg_30_11 dst_reg_30_11)
       (= dst_reg_30_12 dst_reg_30_12)
       (= dst_reg_30_13 dst_reg_30_13)
       (= dst_reg_30_14 dst_reg_30_14)
       (= dst_reg_30_15 dst_reg_30_15)
       (= dst_reg_30_16 dst_reg_30_16)
       (= dst_reg_30_17 dst_reg_30_17)
       (= src_reg_30_18 src_reg_30_18)
       (= src_reg_30_19 src_reg_30_19)
       (= src_reg_30_20 src_reg_30_20)
       (= src_reg_30_21 src_reg_30_21)
       (= src_reg_30_22 src_reg_30_22)
       (= src_reg_30_23 src_reg_30_23)
       (= src_reg_30_24 src_reg_30_24)
       (= src_reg_30_25 src_reg_30_25)
       (= src_reg_30_26 src_reg_30_26)
       (= src_reg_30_27 src_reg_30_27)
       (= src_reg_30_28 src_reg_30_28)
       (= src_reg_30_29 src_reg_30_29)
       (= src_reg_30_30 src_reg_30_30)
       (= src_reg_30_31 src_reg_30_31)
       (= src_reg_30_32 src_reg_30_32)
       (= src_reg_30_33 src_reg_30_33)
       (= src_reg_30_34 src_reg_30_34)
       (= src_reg_30_35 src_reg_30_35)
       (= other_branch_dst_reg_30_36 other_branch_dst_reg_30_36)
       (= other_branch_dst_reg_30_37 other_branch_dst_reg_30_37)
       (= other_branch_dst_reg_30_38 other_branch_dst_reg_30_38)
       (= other_branch_dst_reg_30_39 other_branch_dst_reg_30_39)
       (= other_branch_dst_reg_30_40 other_branch_dst_reg_30_40)
       (= other_branch_dst_reg_30_41 other_branch_dst_reg_30_41)
       (= other_branch_dst_reg_30_42 other_branch_dst_reg_30_42)
       (= other_branch_dst_reg_30_43 other_branch_dst_reg_30_43)
       (= other_branch_dst_reg_30_44 other_branch_dst_reg_30_44)
       (= other_branch_dst_reg_30_45 other_branch_dst_reg_30_45)
       (= other_branch_dst_reg_30_46 other_branch_dst_reg_30_46)
       (= other_branch_dst_reg_30_47 other_branch_dst_reg_30_47)
       (= other_branch_dst_reg_30_48 other_branch_dst_reg_30_48)
       (= other_branch_dst_reg_30_49 other_branch_dst_reg_30_49)
       (= other_branch_dst_reg_30_50 other_branch_dst_reg_30_50)
       (= other_branch_dst_reg_30_51 other_branch_dst_reg_30_51)
       (= other_branch_dst_reg_30_52 other_branch_dst_reg_30_52)
       (= other_branch_dst_reg_30_53 other_branch_dst_reg_30_53)
       (= other_branch_src_reg_30_54 other_branch_src_reg_30_54)
       (= other_branch_src_reg_30_55 other_branch_src_reg_30_55)
       (= other_branch_src_reg_30_56 other_branch_src_reg_30_56)
       (= other_branch_src_reg_30_57 other_branch_src_reg_30_57)
       (= other_branch_src_reg_30_58 other_branch_src_reg_30_58)
       (= other_branch_src_reg_30_59 other_branch_src_reg_30_59)
       (= other_branch_src_reg_30_60 other_branch_src_reg_30_60)
       (= other_branch_src_reg_30_61 other_branch_src_reg_30_61)
       (= other_branch_src_reg_30_62 other_branch_src_reg_30_62)
       (= other_branch_src_reg_30_63 other_branch_src_reg_30_63)
       (= other_branch_src_reg_30_64 other_branch_src_reg_30_64)
       (= other_branch_src_reg_30_65 other_branch_src_reg_30_65)
       (= other_branch_src_reg_30_66 other_branch_src_reg_30_66)
       (= other_branch_src_reg_30_67 other_branch_src_reg_30_67)
       (= other_branch_src_reg_30_68 other_branch_src_reg_30_68)
       (= other_branch_src_reg_30_69 other_branch_src_reg_30_69)
       (= other_branch_src_reg_30_70 other_branch_src_reg_30_70)
       (= other_branch_src_reg_30_71 other_branch_src_reg_30_71)
       (= #x00000001 i.i_30_74)
       (= dst_reg_30_2 i21.i_30_75)
       (= dst_reg_30_3 i22.i_30_76)
       (= dst_reg_30_4 i23.i_30_77)
       (= dst_reg_30_5 i24.i_30_78)
       (= dst_reg_30_6 i25.i_30_79)
       (= dst_reg_30_7 i26.i_30_80)
       (= dst_reg_30_8 i27.i_30_81)
       (= dst_reg_30_9 i28.i_30_82)
       (= dst_reg_30_10 i29.i_30_83)
       (= dst_reg_30_11 i30.i_30_84)
       (= #x00000001 i.i2_30_85)
       (= src_reg_30_20 i21.i5_30_86)
       (= src_reg_30_21 i22.i8_30_87)
       (= src_reg_30_22 i23.i11_30_88)
       (= src_reg_30_23 i24.i14_30_89)
       (= src_reg_30_24 i25.i17_30_90)
       (= src_reg_30_25 i26.i20_30_91)
       (= src_reg_30_26 i27.i23_30_92)
       (= src_reg_30_27 i28.i26_30_93)
       (= src_reg_30_28 i29.i29_30_94)
       (= src_reg_30_29 i30.i32_30_95)
       (= dst_reg_30_6 i133.i.i_30_96)
       (= dst_reg_30_7 i135.i.i_30_97)
       (= src_reg_30_24 i141.i.i_30_98)
       (= src_reg_30_25 i143.i.i_30_99)
       (ite (bvult i135.i.i_30_97 i141.i.i_30_98)
            (= cmp211.i.i_30_100 #b1)
            (= cmp211.i.i_30_100 #b0))
       (ite (bvuge i133.i.i_30_96 i143.i.i_30_99)
            (= cmp215.not.i.i_30_101 #b1)
            (= cmp215.not.i.i_30_101 #b0))
       (ite (= cmp211.i.i_30_100 #b1)
            (= narrow_30_103 #b1)
            (= narrow_30_103 cmp215.not.i.i_30_101)))))))

;{"dst_reg":["dst_reg_30_0","dst_reg_30_1",[""],["dst_reg_30_2","dst_reg_30_3"],"dst_reg_30_4","dst_reg_30_5","dst_reg_30_6","dst_reg_30_7","dst_reg_30_8","dst_reg_30_9","dst_reg_30_10","dst_reg_30_11","dst_reg_30_12","dst_reg_30_13","","","dst_reg_30_14","dst_reg_30_15","dst_reg_30_16"],"other_branch_dst_reg":["other_branch_dst_reg_30_36","other_branch_dst_reg_30_37",[""],["other_branch_dst_reg_30_38","other_branch_dst_reg_30_39"],"other_branch_dst_reg_30_40","other_branch_dst_reg_30_41","other_branch_dst_reg_30_42","other_branch_dst_reg_30_43","other_branch_dst_reg_30_44","other_branch_dst_reg_30_45","other_branch_dst_reg_30_46","other_branch_dst_reg_30_47","other_branch_dst_reg_30_48","other_branch_dst_reg_30_49","","","other_branch_dst_reg_30_50","other_branch_dst_reg_30_51","other_branch_dst_reg_30_52"],"other_branch_src_reg":["other_branch_src_reg_30_54","other_branch_src_reg_30_55",[""],["other_branch_src_reg_30_56","other_branch_src_reg_30_57"],"other_branch_src_reg_30_58","other_branch_src_reg_30_59","other_branch_src_reg_30_60","other_branch_src_reg_30_61","other_branch_src_reg_30_62","other_branch_src_reg_30_63","other_branch_src_reg_30_64","other_branch_src_reg_30_65","other_branch_src_reg_30_66","other_branch_src_reg_30_67","","","other_branch_src_reg_30_68","other_branch_src_reg_30_69","other_branch_src_reg_30_70"],"src_reg":["src_reg_30_18","src_reg_30_19",[""],["src_reg_30_20","src_reg_30_21"],"src_reg_30_22","src_reg_30_23","src_reg_30_24","src_reg_30_25","src_reg_30_26","src_reg_30_27","src_reg_30_28","src_reg_30_29","src_reg_30_30","src_reg_30_31","","","src_reg_30_32","src_reg_30_33","src_reg_30_34"]}
;{"dst_reg":["dst_reg_30_199","dst_reg_30_200",[""],["dst_reg_30_201","dst_reg_30_202"],"dst_reg_30_203","dst_reg_30_204","dst_reg_30_205","dst_reg_30_206","dst_reg_30_207","dst_reg_30_208","dst_reg_30_209","dst_reg_30_210","dst_reg_30_211","dst_reg_30_212","","","dst_reg_30_213","dst_reg_30_214","dst_reg_30_215"],"other_branch_dst_reg":["other_branch_dst_reg_30_235","other_branch_dst_reg_30_236",[""],["other_branch_dst_reg_30_237","other_branch_dst_reg_30_238"],"other_branch_dst_reg_30_239","other_branch_dst_reg_30_240","other_branch_dst_reg_30_241","other_branch_dst_reg_30_242","other_branch_dst_reg_30_243","other_branch_dst_reg_30_244","other_branch_dst_reg_30_245","other_branch_dst_reg_30_246","other_branch_dst_reg_30_247","other_branch_dst_reg_30_248","","","other_branch_dst_reg_30_249","other_branch_dst_reg_30_250","other_branch_dst_reg_30_251"],"other_branch_src_reg":["other_branch_src_reg_30_253","other_branch_src_reg_30_254",[""],["other_branch_src_reg_30_255","other_branch_src_reg_30_256"],"other_branch_src_reg_30_257","other_branch_src_reg_30_258","other_branch_src_reg_30_259","other_branch_src_reg_30_260","other_branch_src_reg_30_261","other_branch_src_reg_30_262","other_branch_src_reg_30_263","other_branch_src_reg_30_264","other_branch_src_reg_30_265","other_branch_src_reg_30_266","","","other_branch_src_reg_30_267","other_branch_src_reg_30_268","other_branch_src_reg_30_269"],"src_reg":["src_reg_30_217","src_reg_30_218",[""],["src_reg_30_219","src_reg_30_220"],"src_reg_30_221","src_reg_30_222","src_reg_30_223","src_reg_30_224","src_reg_30_225","src_reg_30_226","src_reg_30_227","src_reg_30_228","src_reg_30_229","src_reg_30_230","","","src_reg_30_231","src_reg_30_232","src_reg_30_233"]}
